;; ===================== PROJECTED CANON (QE) =====================
;; Each clause below is entailed by Proj = ∃W.F over the canonical vocabulary.
;; Units appear first for clarity; OR-clauses (SAT-filtered) follow.
;; ==================================================================

;; Unit Bool constraints (entailed)
(assert patient_has_finding_of_recurrent_tumor_now)
(assert patient_has_finding_of_secondary_malignant_neoplastic_disease_now)
(assert (not patient_has_undergone_exploratory_thoracotomy_inthehistory))
